HUN,8,6,563
1,26,0,4,2,19,5,9,3,3,4,24
2,29,1,18,0,5,4,22,5,22,3,28
1,6,2,11,0,21,5,16,3,25,4,16
1,18,0,17,2,2,5,25,3,7,4,20
1,18,2,5,0,25,5,23,4,13,3,29
0,2,2,19,1,24,5,26,3,22,4,3
1,30,2,11,0,13,3,29,5,12,4,22
2,29,1,27,0,23,4,12,5,25,3,11
